c Random Network
p max    10      20
n         1  s
n        10  t
a       9       1      26
a       3       5      45
a       7       2      23
a       3       1      50
a       7       1      33
a       9       2      22
a       3       2      39
a       3      10      13
a       7       9      39
a       1       3      26
a       3       9      28
a      10       5      46
a       1       7       7
a       9       7      15
a       2       1      30
a       9       3      13
a       8       1       3
a       1       8       9
a      10       2       9
a       4       1      14
